c --- [ banner ] -------------------------------------------------------------
c 
c CaDiCaL Radically Simplified CDCL SAT Solver
c Copyright (c) 2016-2021 A. Biere, M. Fleury, N. Froleyks
c 
c Version 1.5.2 ca9bff05c11bde5eae4912f9932871d1527e61d8
c g++ (GCC) 9.3.0 -Wall -Wextra -O3 -DNDEBUG
c Sun May 1 02:23:23 EDT 2022 Linux gra-login1 3.10.0-1160.59.1.el7.x86_64 x86_64
c 
c --- [ limit ] --------------------------------------------------------------
c 
c setting conflict limit to 200000 conflicts (due to '200000')
c 
c --- [ parsing input ] ------------------------------------------------------
c 
c reading DIMACS file from '12.cubes1097.adj'
c opening file to read '12.cubes1097.adj'
c found 'p cnf 5320 924210' header
c parsed 924210 clauses in 8.12 seconds process time
c closing file '12.cubes1097.adj'
c after reading 686668114 bytes 654.9 MB
c 
c --- [ options ] ------------------------------------------------------------
c 
c all options are set to their default value
c 
c --- [ solving ] ------------------------------------------------------------
c 
c time measured in process time since initialization
c 
c  seconds   reductions  redundant  irredundant
c          MB    restarts       trail      variables
c           level   conflicts       glue        remaining
c 
c *  8.12 686  0 0   0    0    0  0% 0 923580 4080 77%
c {  8.93 729  0 0   0    0    0  0% 0 923580 4080 77%
c i  9.49 742 79 0   0   15   13 44% 1 923580 4063 76%
c i  9.78 751 77 0   1   20   15 46% 2 923580 4030 76%
c i 10.29 761 49 0   5   43   27 43% 5 923580 4016 75%
c i 10.45 762 25 0   5   92   39 37% 4 923580 4002 75%
c i 10.82 765 30 0   8  121   46 37% 4 923580 3995 75%
c i 10.92 765 34 0   9  127   51 38% 7 923580 3994 75%
c i 10.98 766 36 0  10  130   53 38% 7 923580 3993 75%
c i 11.21 769 33 0  25  197   65 38% 9 923580 3992 75%
c - 13.12 706 26 1  54  300   55 38% 11 250440 3992 75%
c i 13.28 707 21 1  74  455   61 38% 11 250440 3991 75%
c i 13.29 707 21 1  74  458   63 38% 11 250440 3990 75%
c i 13.30 707 21 1  74  459   63 38% 11 250440 3989 75%
c i 13.30 707 21 1  74  460   63 38% 11 250440 3988 75%
c i 13.30 707 21 1  74  461   63 38% 11 250440 3987 75%
c i 13.30 707 21 1  74  463   64 38% 11 250440 3986 75%
c i 13.30 707 21 1  74  464   64 38% 11 250440 3985 75%
c i 13.30 707 21 1  74  465   64 38% 11 250440 3984 75%
c i 13.30 707 21 1  74  466   64 38% 11 250440 3983 75%
c 
c  seconds   reductions  redundant   irredundant
c          MB    restarts       trail       variables
c           level   conflicts       glue         remaining
c 
c i 13.30 707 21 1  74  467   64 39% 11 250440 3982 75%
c i 13.30 707 21 1  74  468   64 39% 11 250440 3981 75%
c i 13.30 707 21 1  74  469   64 39% 11 250440 3980 75%
c i 13.30 707 21 1  74  470   64 39% 11 250440 3979 75%
c i 13.32 707 21 1  74  475   68 39% 11 250440 3978 75%
c i 13.33 707 21 1  74  480   70 39% 11 250440 3977 75%
c i 13.33 707 21 1  74  481   70 39% 11 250440 3976 75%
c i 13.49 690 22 1  78  506   89 40% 12 250440 3975 75%
c i 13.50 690 22 1  78  507   89 40% 12 250440 3974 75%
c i 13.50 690 22 1  79  509   90 40% 12 250440 3973 75%
c i 13.68 690 25 1  85  527  105 40% 13 250440 3972 75%
c i 13.75 690 29 1  86  546  114 41% 15 250440 3966 75%
c i 13.81 690 31 1  90  561  125 41% 15 250440 3965 75%
c i 13.81 690 30 1  90  562  125 41% 15 250440 3964 75%
c i 13.81 690 30 1  91  563  125 41% 15 250440 3963 74%
c i 13.81 690 30 1  91  564  125 41% 15 250440 3962 74%
c i 13.81 690 30 1  91  565  125 41% 15 250440 3961 74%
c i 13.81 690 30 1  92  566  125 41% 15 250440 3960 74%
c i 13.81 690 30 1  92  569  126 41% 15 250440 3959 74%
c i 13.83 690 32 1  95  580  133 41% 16 250440 3942 74%
c 
c  seconds   reductions  redundant   irredundant
c          MB    restarts       trail       variables
c           level   conflicts       glue         remaining
c 
c i 13.95 690 37 1 103  612  159 41% 18 250440 3941 74%
c } 14.00 690 25 1 114 1000  194 39% 14 250440 3941 74%
c [ 14.00 690  0 1 114 1000  194  0% 0 250440 3941 74%
c O 14.01 690  6 1 114 1004  193 37% 6 250440 3941 74%
c i 14.13 690  5 1 114 1017  198 40% 5 250440 3940 74%
c i 14.14 690  5 1 114 1020  200 43% 5 250440 3939 74%
c i 14.16 690  7 1 114 1030  204 47% 7 250440 3938 74%
c i 14.17 690  8 1 114 1043  212 50% 7 250440 3937 74%
c i 14.17 690  8 1 114 1044  212 50% 7 250440 3936 74%
c i 14.18 690  8 1 114 1045  212 50% 7 250440 3935 74%
c i 14.18 690  8 1 114 1046  212 50% 7 250440 3934 74%
c i 14.18 690  8 1 114 1049  212 50% 7 250440 3933 74%
c i 14.23 690 10 1 114 1089  234 53% 9 250440 3932 74%
c i 14.24 690 10 1 114 1122  248 54% 9 250440 3931 74%
c i 14.25 690 10 1 114 1129  254 55% 9 250440 3930 74%
c i 14.25 690 10 1 114 1132  255 55% 9 250440 3929 74%
c - 14.67 787 11 2 114 1140  240 55% 9 250103 3929 74%
c i 14.72 787 11 2 114 1152  245 55% 9 250103 3928 74%
c i 14.72 787 10 2 114 1158  249 55% 9 250103 3927 74%
c i 14.72 787 10 2 114 1159  249 55% 9 250103 3926 74%
c 
c  seconds   reductions  redundant  irredundant
c          MB    restarts       trail      variables
c           level   conflicts       glue        remaining
c 
c i 14.74 787 10 2 114 1171  249 54% 9 250103 3925 74%
c i 14.75 787 10 2 114 1179  252 54% 9 250103 3924 74%
c i 14.75 787 10 2 114 1180  252 54% 9 250103 3923 74%
c i 14.76 787 10 2 114 1191  259 54% 9 250103 3922 74%
c i 14.77 787 10 2 114 1193  260 54% 9 250103 3921 74%
c i 14.87 787 10 2 114 1294  297 55% 9 250103 3920 74%
c i 14.87 787 10 2 114 1298  300 55% 9 250103 3919 74%
c i 14.96 787 14 2 114 1417  346 56% 10 250103 3918 74%
c i 14.96 787 14 2 114 1420  346 56% 10 250103 3917 74%
c i 14.96 787 15 2 114 1430  351 56% 11 250103 3916 74%
c i 14.96 787 15 2 114 1431  351 56% 11 250103 3915 74%
c i 14.96 787 15 2 114 1432  351 56% 11 250103 3914 74%
c i 14.96 787 15 2 114 1439  355 56% 11 250103 3913 74%
c i 14.96 787 15 2 114 1440  355 56% 11 250103 3912 74%
c i 14.96 787 15 2 114 1441  355 56% 11 250103 3911 74%
c i 14.96 787 15 2 114 1450  360 56% 12 250103 3910 73%
c i 14.96 787 15 2 114 1451  360 55% 12 250103 3909 73%
c i 14.96 787 15 2 114 1453  361 55% 12 250103 3908 73%
c i 14.97 787 16 2 114 1458  362 55% 12 250103 3907 73%
c i 14.97 787 16 2 114 1463  364 55% 12 250103 3906 73%
c 
c  seconds   reductions  redundant   irredundant
c          MB    restarts       trail       variables
c           level   conflicts       glue         remaining
c 
c i 14.99 787 17 2 114 1479  379 55% 13 250103 3905 73%
c i 15.06 787 20 2 114 1521  412 55% 15 250103 3904 73%
c i 15.14 787 23 2 114 1582  444 55% 18 250103 3903 73%
c i 15.14 787 23 2 114 1583  444 55% 18 250103 3902 73%
c i 15.14 787 23 2 114 1584  444 55% 18 250103 3901 73%
c i 15.14 787 23 2 114 1585  444 55% 18 250103 3900 73%
c i 15.14 787 23 2 114 1586  444 55% 18 250103 3899 73%
c i 15.14 787 23 2 114 1587  444 55% 18 250103 3898 73%
c i 15.14 787 23 2 114 1588  444 55% 18 250103 3897 73%
c i 15.15 787 23 2 114 1600  449 54% 18 250103 3896 73%
c i 15.15 787 23 2 114 1601  449 54% 18 250103 3895 73%
c i 15.15 787 23 2 114 1602  449 54% 18 250103 3894 73%
c i 15.15 787 23 2 114 1603  449 54% 18 250103 3893 73%
c i 15.16 787 24 2 114 1630  457 54% 19 250103 3892 73%
c i 15.17 787 24 2 114 1631  457 54% 19 250103 3891 73%
c i 15.17 787 24 2 114 1636  460 54% 19 250103 3890 73%
c i 15.18 787 25 2 114 1644  465 54% 19 250103 3889 73%
c i 15.18 787 25 2 114 1651  468 54% 20 250103 3888 73%
c i 15.18 787 25 2 114 1652  468 54% 20 250103 3887 73%
c i 15.18 787 25 2 114 1657  469 54% 20 250103 3886 73%
c 
c  seconds   reductions  redundant   irredundant
c          MB    restarts       trail       variables
c           level   conflicts       glue         remaining
c 
c i 15.19 787 26 2 114 1681  484 54% 20 250103 3885 73%
c i 15.19 787 26 2 114 1683  485 54% 20 250103 3884 73%
c i 15.19 787 26 2 114 1684  485 54% 20 250103 3883 73%
c i 15.19 787 26 2 114 1685  485 54% 20 250103 3882 73%
c i 15.19 787 26 2 114 1686  485 54% 20 250103 3881 73%
c i 15.19 787 26 2 114 1687  485 54% 20 250103 3880 73%
c i 15.19 787 26 2 114 1688  485 54% 20 250103 3879 73%
c i 15.20 787 26 2 114 1702  493 54% 20 250103 3878 73%
c i 15.20 787 26 2 114 1703  493 54% 20 250103 3877 73%
c i 15.20 787 26 2 114 1704  493 54% 20 250103 3876 73%
c i 15.23 787 27 2 114 1735  517 54% 21 250103 3875 73%
c i 15.23 787 26 2 114 1736  517 54% 21 250103 3874 73%
c i 15.23 787 26 2 114 1737  517 53% 21 250103 3873 73%
c i 15.23 787 26 2 114 1745  523 53% 21 250103 3872 73%
c i 15.29 787 27 2 114 1811  573 54% 22 250103 3871 73%
c i 15.29 787 27 2 114 1814  573 53% 22 250103 3870 73%
c i 15.29 787 27 2 114 1815  573 53% 22 250103 3869 73%
c i 15.29 787 27 2 114 1816  573 53% 22 250103 3868 73%
c i 15.31 787 28 2 114 1878  616 53% 22 250103 3867 73%
c i 15.31 787 28 2 114 1879  616 53% 22 250103 3866 73%
c 
c  seconds   reductions  redundant   irredundant
c          MB    restarts       trail       variables
c           level   conflicts       glue         remaining
c 
c i 15.31 787 28 2 114 1880  616 53% 22 250103 3865 73%
c i 15.32 787 28 2 114 1902  627 53% 22 250103 3864 73%
c - 15.73 777 28 3 115 2398  749 52% 23 249908 3864 73%
c ] 16.39 777 27 3 115 3000  975 33% 23 249908 3864 73%
c { 16.39 777 25 3 115 3000  975 54% 14 249908 3864 73%
c F 16.40 777 25 3 115 3006  977 54% 14 249908 3864 73%
c i 16.40 777 25 3 115 3006  977 54% 14 249908 3863 73%
c i 16.40 777 25 3 115 3007  977 54% 14 249908 3862 73%
c i 16.40 777 25 3 115 3008  977 54% 14 249908 3861 73%
c i 16.40 777 25 3 115 3009  977 54% 14 249908 3860 73%
c i 16.40 777 25 3 115 3010  977 54% 14 249908 3859 73%
c i 16.40 777 25 3 115 3011  977 53% 14 249908 3858 73%
c i 16.40 777 25 3 115 3012  977 53% 13 249908 3857 72%
c i 16.40 777 25 3 115 3013  977 53% 13 249908 3856 72%
c i 16.40 777 25 3 115 3014  977 53% 13 249908 3855 72%
c i 16.40 777 25 3 115 3015  977 53% 13 249908 3854 72%
c i 16.40 777 25 3 115 3016  977 53% 13 249908 3853 72%
c i 16.40 777 25 3 115 3017  977 53% 13 249908 3852 72%
c i 16.40 777 25 3 115 3018  977 53% 13 249908 3851 72%
c i 16.40 777 25 3 115 3019  977 53% 13 249908 3850 72%
c 
c  seconds   reductions  redundant   irredundant
c          MB    restarts       trail       variables
c           level   conflicts       glue         remaining
c 
c i 16.40 777 25 3 115 3020  977 53% 13 249908 3849 72%
c i 16.42 777 25 3 115 3022  978 53% 13 249908 3848 72%
c i 16.42 777 25 3 115 3023  978 53% 13 249908 3847 72%
c i 16.42 777 25 3 115 3024  978 53% 13 249908 3846 72%
c i 16.42 777 25 3 115 3025  978 53% 13 249908 3845 72%
c i 16.42 777 25 3 115 3026  978 53% 13 249908 3844 72%
c i 16.42 777 25 3 115 3027  978 53% 13 249908 3843 72%
c i 16.42 777 25 3 115 3028  978 53% 13 249908 3842 72%
c i 16.42 777 25 3 115 3029  978 53% 13 249908 3841 72%
c i 16.42 777 25 3 115 3030  978 53% 13 249908 3840 72%
c i 16.51 777 25 3 115 3044  990 52% 13 249908 3839 72%
c i 16.51 777 25 3 115 3047  992 52% 13 249908 3838 72%
c i 16.53 777 25 3 115 3049  993 52% 13 249908 3837 72%
c i 16.60 777 24 3 115 3076 1011 52% 13 249908 3836 72%
c i 16.60 777 24 3 115 3077 1011 52% 13 249908 3835 72%
c i 16.71 777 24 3 115 3128 1048 51% 13 249908 3834 72%
c i 16.72 777 24 3 115 3129 1048 51% 13 249908 3833 72%
c i 16.87 777 20 3 115 3489 1131 44% 12 249908 3832 72%
c i 16.99 777 20 3 115 3517 1156 44% 12 249908 3831 72%
c i 17.00 777 20 3 115 3520 1158 44% 11 249908 3830 72%
c 
c  seconds   reductions  redundant   irredundant
c          MB    restarts       trail       variables
c           level   conflicts       glue         remaining
c 
c i 17.05 777 20 3 115 3527 1164 43% 12 249908 3829 72%
c i 17.08 777 21 3 115 3533 1168 43% 12 249908 3828 72%
c i 17.09 777 21 3 117 3538 1172 43% 12 249908 3827 72%
c i 17.10 777 21 3 118 3542 1174 43% 12 249908 3826 72%
c i 17.10 777 21 3 118 3543 1174 43% 12 249908 3825 72%
c - 17.77 770 19 4 142 4075  900 37% 11 249791 3825 72%
c i 17.87 770 18 4 142 4243  918 36% 11 249791 3824 72%
c i 17.92 770 18 4 142 4294  926 35% 11 249791 3823 72%
c i 17.93 770 18 4 142 4299  930 35% 11 249791 3822 72%
c i 18.18 770 19 4 164 4562 1005 34% 11 249791 3821 72%
c i 18.18 770 19 4 164 4563 1005 34% 11 249791 3820 72%
c i 18.18 770 19 4 164 4564 1005 34% 11 249791 3819 72%
c i 18.19 770 19 4 164 4566 1006 34% 11 249791 3818 72%
c i 18.21 770 19 4 168 4590 1012 34% 11 249791 3817 72%
c i 18.21 770 19 4 168 4591 1012 34% 11 249791 3816 72%
c i 18.88 770 19 4 197 4899 1165 33% 11 249791 3815 72%
c 2 19.45 770 19 4 212 5001 2995 32% 11 249644 3774 71%
c p 27.38 770 19 4 212 5001 9683 32% 11 249644 3654 69%
c d 27.68 771 19 4 212 5001 8745 32% 11 212665 3643 68%
c d 27.80 771 19 4 212 5001 8745 32% 11 212663 3642 68%
c 
c  seconds   reductions  redundant   irredundant
c          MB    restarts       trail       variables
c           level   conflicts       glue         remaining
c 
c # 29.33 770 18 4 267 6008 9341 33% 11 212663 3642 68%
c - 29.88 750 17 5 269 6171 1759 33% 11 212663 3642 68%
c } 30.50 750 16 5 316 7002 1943 31% 10 212663 3642 68%
c [ 30.50 750 27 5 316 7002 1943 33% 23 212663 3642 68%
c - 32.06 690 23 6 317 8561 2036 33% 19 212663 3642 68%
c I 33.27 690 22 6 318 10010 3001 35% 18 212663 3642 68%
c - 34.41 725 21 7 320 11349 2781 35% 18 212663 3642 68%
c - 35.95 665 21 8 321 14535 3146 36% 18 212663 3642 68%
c ] 36.14 665 21 8 321 15003 3464 37% 18 212663 3642 68%
c { 36.14 665 16 8 321 15003 3464 31% 10 212663 3642 68%
c 3 36.17 665 16 8 321 15003 4752 31% 10 212663 3642 68%
c 2 36.21 665 16 8 321 15003 5009 31% 10 212659 3642 68%
c p 39.48 665 16 8 321 15003 10895 31% 10 212659 3635 68%
c d 39.64 665 16 8 321 15003 10776 31% 10 203862 3633 68%
c B 39.75 665 16 8 321 15012 10785 31% 11 203862 3633 68%
c s 40.89 665 17 8 425 15647 10260 31% 11 200753 3633 68%
c v 43.62 665 17 8 425 15647 10260 31% 11 200679 3633 68%
c w 43.77 665 17 8 425 15647 10258 31% 11 200679 3633 68%
c t 43.78 665 17 8 425 15647 10206 31% 11 200611 3633 68%
c e 44.14 665 17 8 425 15647 3989 31% 11 194333 520 10%
c 
c  seconds   reductions   redundant   irredundant
c          MB    restarts        trail       variables
c           level    conflicts       glue        remaining
c 
c s 44.22 665 17 8 425 15647 3988 31% 11 193669 520 10%
c i 45.56 666 16 8 427 16625 4344 69% 11 193669 504  9%
c - 46.56 666 15 9 519 18119 2388 72% 10 191674 504  9%
c W 48.53 666 14 9 671 21013 3792 76% 10 191674 504  9%
c - 49.00 666 14 10 675 21966 3198 76% 10 191674 504  9%
c i 49.20 666 14 10 675 22562 3503 77% 10 191674 493  9%
c i 50.30 666 14 10 729 23275 3880 77% 10 191674 492  9%
c - 53.65 666 14 11 982 26198 2959 76% 10 190223 492  9%
c i 53.75 666 14 11 982 26335 3009 76% 10 190223 484  9%
c F 55.49 666 13 11 1077 28015 3880 77% 10 190223 484  9%
c 2 57.58 666 13 11 1200 30003 5163 77% 10 190221 477  9%
c p 59.34 666 13 11 1200 30003 6345 77% 10 190221 363  7%
c d 59.51 666 13 11 1200 30003 4321 77% 10 91825 357  7%
c d 59.56 666 13 11 1200 30003 4315 77% 10 91813 352  7%
c - 60.17 666 13 12 1210 30804 3204 69% 10 91813 352  7%
c } 60.34 666 13 12 1224 31004 3273 69% 10 91813 352  7%
c [ 60.34 666 21 12 1224 31004 3273 401% 18 91813 352  7%
c i 60.77 666 20 12 1224 31771 3589 373% 17 91813 323  6%
c i 61.07 666 20 12 1224 32989 4330 336% 17 91813 299  6%
c i 61.07 666 20 12 1224 32998 4338 336% 17 91813 298  6%
c 
c  seconds   reductions     redundant    irredundant
c          MB     restarts         trail       variables
c           level      conflicts        glue       remaining
c 
c i 61.13 666 19 12 1224 33229 4468 330% 17 91813 297  6%
c i 61.18 665 19 12 1225 33570 4617 321% 16 91813 270  5%
c ] 61.19 665 19 12 1225 33618 4632 320% 16 91813 230  4%
c 0 61.19 665 19 12 1225 33618 4632 320% 16 91813 230  4%
c 
c --- [ writing output ] -----------------------------------------------------
c 
c writing simplified CNF to DIMACS file 'simp/12.cubes1097.adj.simp1'
c * 61.19 665 19 12 1225 33618 4632 320% 16 91813 230  4%
c opening file to write 'simp/12.cubes1097.adj.simp1'
c writing 'p cnf 5320 1' header
c closing file 'simp/12.cubes1097.adj.simp1'
c after writing 15 bytes 0.0 MB
c wrote 1 clauses in 0.00 seconds process time
c 
c --- [ writing extension ] --------------------------------------------------
c 
c writing extension stack to 'simp/12.cubes1097.adj.ext1'
c opening file to write 'simp/12.cubes1097.adj.ext1'
c closing file 'simp/12.cubes1097.adj.ext1'
c after writing 0 bytes 0.0 MB
c wrote 0 witnesses in 0.00 seconds process time
c 
c --- [ result ] -------------------------------------------------------------
c 
s UNSATISFIABLE
c 
c --- [ run-time profiling ] -------------------------------------------------
c 
c process time taken by individual solving procedures
c (percentage relative to process time for solving)
c 
c        35.08   66.11% search
c        25.16   47.40% unstable
c        17.98   33.89% simplify
c        12.95   24.41% probe
c         8.88   16.73% stable
c         8.12   15.30% parse
c         2.87    5.40% vivify
c         0.81    1.53% lucky
c         0.67    1.26% elim
c         0.24    0.45% walk
c         0.18    0.33% subsume
c         0.11    0.20% ternary
c   =================================
c        53.07   86.72% solve
c 
c last line shows process time for solving
c (percentage relative to total process time)
c 
c --- [ statistics ] ---------------------------------------------------------
c 
c chronological:              5137        15.28 %  of conflicts
c conflicts:                 33618       633.52    per second
c decisions:                 62100      1170.25    per second
c eliminated:                 3113        58.52 %  of all variables
c fixed:                      1927        36.22 %  of all variables
c learned:                   32922        97.93 %  per conflict
c learned_lits:            3281914       100.00 %  learned literals
c minimized:                     0         0.00 %  learned literals
c shrunken:                2399667        73.12 %  learned literals
c minishrunken:             107601         3.28 %  learned literals
c propagations:            3953657         0.07 M  per second
c reduced:                    7526        22.39 %  per conflict
c rephased:                      7      4802.57    interval
c restarts:                   1225        27.44    interval
c stabilizing:                   3        37.52 %  of conflicts
c substituted:                  50         0.94 %  of all variables
c subsumed:                  21507         0.95 %  of all clauses
c strengthened:               7449         0.33 %  of all clauses
c ternary:                    3706         0.47 %  of resolved
c vivified:                     93         0.00 %  of all clauses
c walked:                        1     33618.00    interval
c weakened:                   6806         2.97    average size
c 
c seconds are measured in process time for solving
c 
c --- [ resources ] ----------------------------------------------------------
c 
c total process time since initialization:        61.19    seconds
c total real time since initialization:           61.40    seconds
c maximum resident set size of process:          873.89    MB
c 
c --- [ shutting down ] ------------------------------------------------------
c 
c exit 20
WARNING! DIMACS header mismatch: wrong number of variables.
============================[ Problem Statistics ]=============================
|                                                                             |
|  Number of variables:             0                                         |
|  Number of clauses:               0                                         |
|  Parse time:                   0.00 s                                       |
|  Simplification time:          0.00 s                                       |
|                                                                             |
===============================================================================
Solved by simplification
database reductions   : 0
restarts              : 0
conflicts             : 0              (0 /sec)
decisions             : 0              (-nan % random) (0 /sec)
propagations          : 0              (0 /sec)
conflict literals     : 0              (-nan % deleted)
actual reward         : -nan
Memory used           : 5.00 MB
CPU time              : 0.000856 s

UNSATISFIABLE
